Traveling Salesman Problem/TSP_generados/Aleatorio1620390975_11.tsp
NAME: Aleatorio1620390975_11.tsp
COMMENT: Randomly generated scenario
TYPE: TSP
DIMENSION: 11
EDGE_WEIGHT_TYPE: ATT
NODE_COORD_SECTION
1 32.42 15.35
2 19.86 25.13
3 24.39 16.84
4 11.84 18.6
5 17.36 24.04
6 48.81 29.52
7 9.64 4.29
8 19.92 12.86
9 1.72 25.22
10 14.04 46.94
11 6.89 22.08
