Traveling Salesman Problem/TSP_generados/Aleatorio1620390975_11.opt.tour
NAME: Aleatorio1620390975_11.opt.tour
COMMENT: Optimal solution for Aleatorio1620390975_11 (155.62032051470214)
TYPE: TOUR
DIMENSION: 11
TOUR_SECTION
1 3 8 7 9 11 4 5 2 10 6
-1
EOF
